16
product RDKit MMFF local geometry
C -1.0589758 0.9230319 -0.5232226
C 0.1842605 1.5512109 0.0362172
C 1.1980302 0.8389194 0.5499628
C 1.2101458 -0.6616390 0.5873362
C 0.1302335 -1.2927002 -0.2954890
C -1.2000055 -0.5570617 -0.1581719
H -1.0421388 1.0355704 -1.6138024
H -1.9378919 1.4658634 -0.1574058
H 0.2444531 2.6365592 0.0185357
H 2.0632793 1.3537597 0.9600839
H 1.0728732 -0.9823884 1.6268503
H 2.1921112 -1.0262997 0.2652355
H 0.0066566 -2.3484414 -0.0290022
H 0.4521594 -1.2652024 -1.3444771
H -1.9570996 -1.0241095 -0.7981331
H -1.5580911 -0.6470727 0.8754824
