16
Rowan conformer workflow 3d530210-368d-4296-9460-94b383d7295a, collected result geometry
C 0.70729978 -1.28850608 -0.29437854
C 1.46086338 -0.01655531 -0.55418870
C 0.94870966 1.20028144 -0.31748250
C -0.44378243 1.41796340 0.19904390
C -1.31716492 0.16322610 0.11739669
C -0.54763937 -1.07933163 0.55720909
H 0.43076044 -1.72943519 -1.25948010
H 1.36514335 -2.00530677 0.21002278
H 2.46963092 -0.10779028 -0.94913220
H 1.55314709 2.08401706 -0.50611597
H -0.92200387 2.22299753 -0.37034747
H -0.37716015 1.75578181 1.24007869
H -2.20960848 0.29409474 0.73972563
H -1.66626199 0.02619008 -0.91416538
H -0.26156647 -0.97325664 1.61157100
H -1.19036696 -1.96437024 0.49024309
