16
reactant RDKit MMFF local geometry
C 1.3025139 1.1215940 0.6365049
C 0.5035861 0.0555235 0.5129561
C -0.5035848 -0.0555251 -0.5129561
C -1.3025144 -1.1215942 -0.6365046
C -0.6676172 -0.0046842 -0.0186261
C 0.6676176 0.0046856 0.0186321
H 1.2390865 1.9727883 -0.0338003
H 2.0476898 1.1623794 1.4247507
H 0.6109148 -0.7701659 1.2133966
H -0.6109156 0.7701637 -1.2133963
H -2.0476908 -1.1623743 -1.4247503
H -1.2390856 -1.9727894 0.0337992
H -1.2345453 0.9209288 -0.0074085
H -1.2199967 -0.9381538 -0.0610916
H 1.2345416 -0.9209298 0.0074007
H 1.2200001 0.9381535 0.0610933
